50
6491

374 515
466 465
461 366
788 665
32 581
294 709
64 191
899 628
379 573
628 222
653 32
546 705
728 633
248 267
35 267
37 32
525 180
458 931
860 18
676 126
536 143
859 407
704 692
483 636
385 664
151 555
822 562
46 483
379 35
770 436
929 648
356 455
2 595
429 697
902 937
110 449
299 72
98 633
985 660
246 628
267 232
862 338
681 677
70 62
306 726
309 116
740 727
426 665
895 904
606 871
